6,1,7,1,12,1,4,1,17,2,7,2,5,1,10,2,18,3,3,2,20,3,14,2,5,2,14,4,2,3,5,4,20,4,6,4,3,5,9,5;3,1,18,1,18,2,20,2,9,1,16,2,12,2,15,2,7,3,6,3,4,4,10,4,9,4,10,5,18,5,3,4,14,5,2,5,6,5;17,1,15,1,6,2,13,2,8,2,8,3,14,1,11,4,18,4,9,2,9,3,15,3,1,3,12,4,4,5,1,4,2,4,13,5,1,5;10,1,20,1,11,1,19,2,11,2,11,3,19,3,13,3,19,5,11,5,14,3,12,3,5,3,15,4,17,4,16,3,8,5,16,4,20,5,7,5,17,5;19,1,16,1,13,1,1,1,8,1,1,2,4,2,4,3,19,4,10,3,2,1,2,2,17,3,3,3,8,4,13,4,5,5,7,4,16,5,12,5,15,5;
